1, 30, 23, 25, 44, 29, 28, 27, 21, 22, 53, 52, 15, 1
1, 19, 20, 38, 40, 41, 49, 48, 50, 43, 39, 33, 1
1, 14, 16, 4, 6, 5, 9, 10, 11, 12, 13, 8, 7, 3, 2, 18, 1
1, 36, 34, 35, 42, 51, 46, 45, 47, 37, 24, 32, 31, 26, 17, 1
